(set-info :smt-lib-version 2.6)
(set-logic QF_UFLRA)
(set-info :source |
MathSat group

|)
(set-info :category "random")
(set-info :status sat)
(declare-fun x0 () Real)
(declare-fun x1 () Real)
(declare-fun x2 () Real)
(declare-fun x3 () Real)
(declare-fun x4 () Real)
(declare-fun x5 () Real)
(declare-fun x6 () Real)
(declare-fun x7 () Real)
(declare-fun x8 () Real)
(declare-fun x9 () Real)
(declare-fun x10 () Real)
(declare-fun x11 () Real)
(declare-fun x12 () Real)
(declare-fun x13 () Real)
(declare-fun x14 () Real)
(declare-fun x15 () Real)
(declare-fun x16 () Real)
(declare-fun x17 () Real)
(declare-fun x18 () Real)
(declare-fun x19 () Real)
(declare-fun x20 () Real)
(declare-fun x21 () Real)
(declare-fun x22 () Real)
(declare-fun x23 () Real)
(declare-fun x24 () Real)
(declare-fun x25 () Real)
(declare-fun x26 () Real)
(declare-fun x27 () Real)
(declare-fun x28 () Real)
(declare-fun x29 () Real)
(declare-fun f0_1 (Real) Real)
(declare-fun f0_2 (Real Real) Real)
(declare-fun f0_3 (Real Real Real) Real)
(declare-fun f0_4 (Real Real Real Real) Real)
(declare-fun P0 () Bool)
(declare-fun P1 () Bool)
(declare-fun P2 () Bool)
(declare-fun P3 () Bool)
(declare-fun P4 () Bool)
(declare-fun P5 () Bool)
(declare-fun P6 () Bool)
(declare-fun P7 () Bool)
(declare-fun P8 () Bool)
(declare-fun P9 () Bool)
(declare-fun P10 () Bool)
(declare-fun P11 () Bool)
(declare-fun P12 () Bool)
(declare-fun P13 () Bool)
(declare-fun P14 () Bool)
(declare-fun P15 () Bool)
(declare-fun P16 () Bool)
(declare-fun P17 () Bool)
(declare-fun P18 () Bool)
(declare-fun P19 () Bool)
(declare-fun P20 () Bool)
(declare-fun P21 () Bool)
(declare-fun P22 () Bool)
(declare-fun P23 () Bool)
(declare-fun P24 () Bool)
(declare-fun P25 () Bool)
(declare-fun P26 () Bool)
(declare-fun P27 () Bool)
(declare-fun P28 () Bool)
(declare-fun P29 () Bool)
(assert (let ((?v_7 (distinct (+ (- (* 16 x15) (* 9 x19)) (* 21 x21)) 37)) (?v_76 (<= (+ (- (* 10 x21) (* 34 x4)) (* 20 x26)) 30)) (?v_10 (<= (- (- (* 37 x24) (* 13 x28)) (* 17 x28)) 3)) (?v_132 (<= (- (+ (* 40 x25) (* 5 x16)) (* 29 x12)) 0)) (?v_4 (< (+ (- (* 13 x19) (* 26 x20)) (* 15 x12)) 11)) (?v_20 (* 17 x18)) (?v_119 (< (- (- (* 6 x18) (* 41 x16)) (* 15 x13)) 22)) (?v_40 (f0_1 x19))) (let ((?v_45 (distinct (f0_2 x16 x4) ?v_40)) (?v_18 (f0_1 x6))) (let ((?v_3 (distinct x10 ?v_18)) (?v_15 (f0_1 x17)) (?v_56 (f0_1 x14))) (let ((?v_53 (distinct ?v_15 ?v_56)) (?v_2 (distinct (f0_2 x29 x22) (f0_1 x10))) (?v_68 (f0_1 x0))) (let ((?v_134 (distinct (f0_1 x3) ?v_68)) (?v_33 (distinct ?v_18 x13)) (?v_13 (f0_1 x29))) (let ((?v_23 (distinct ?v_13 (f0_1 x21))) (?v_120 (distinct x12 x21)) (?v_58 (distinct x25 (f0_2 x29 x29))) (?v_104 (distinct x10 (f0_2 x4 x24))) (?v_34 (distinct x10 (f0_2 x6 x26))) (?v_44 (= (f0_2 x9 x21) (f0_1 x20))) (?v_8 (f0_1 x15))) (let ((?v_5 (= (f0_1 x11) ?v_8)) (?v_52 (f0_1 x1))) (let ((?v_82 (distinct x13 ?v_52)) (?v_118 (distinct x14 (f0_2 x3 x1))) (?v_93 (distinct ?v_68 (f0_2 x29 x5))) (?v_63 (distinct ?v_56 (f0_1 x23))) (?v_111 (distinct x27 (f0_2 x16 x13))) (?v_29 (= x9 x11)) (?v_125 (= x6 x29)) (?v_16 (f0_1 x4))) (let ((?v_150 (distinct ?v_16 (f0_1 x9))) (?v_19 (= x22 ?v_15)) (?v_96 (= ?v_16 x15)) (?v_61 (= (f0_2 x7 x8) x29)) (?v_49 (= (f0_2 x8 x8) (f0_1 x16))) (?v_73 (distinct (f0_2 x15 x28) ?v_40)) (?v_48 (= (f0_2 x16 x8) x2)) (?v_64 (distinct ?v_8 ?v_52)) (?v_37 (distinct ?v_13 x6)) (?v_78 (= (f0_2 x17 x29) x25)) (?v_43 (not P4))) (let ((?v_103 (not ?v_96)) (?v_86 (not P5)) (?v_0 (not P20)) (?v_26 (not ?v_2)) (?v_12 (not ?v_4)) (?v_143 (not ?v_7)) (?v_46 (not P8)) (?v_28 (not ?v_64)) (?v_60 (not ?v_44)) (?v_113 (not P6)) (?v_72 (not ?v_23)) (?v_106 (not P18)) (?v_21 (not ?v_53)) (?v_128 (not ?v_10)) (?v_75 (not ?v_5)) (?v_89 (not ?v_29)) (?v_47 (not ?v_150)) (?v_24 (not ?v_19)) (?v_27 (not P28)) (?v_36 (not P22)) (?v_67 (not P3)) (?v_131 (not ?v_78)) (?v_117 (not P11)) (?v_55 (not ?v_34)) (?v_42 (not P9)) (?v_77 (not P7)) (?v_91 (not P13)) (?v_99 (not ?v_33)) (?v_41 (not ?v_45)) (?v_87 (not ?v_76)) (?v_100 (not P16)) (?v_107 (not ?v_3)) (?v_102 (not ?v_132)) (?v_70 (not P24)) (?v_101 (not P23)) (?v_130 (not P19)) (?v_83 (not P29)) (?v_121 (not ?v_82)) (?v_59 (not ?v_125)) (?v_79 (not P25)) (?v_116 (not ?v_63)) (?v_94 (not ?v_58)) (?v_129 (not ?v_49)) (?v_109 (not ?v_61)) (?v_84 (not ?v_119)) (?v_112 (not ?v_134)) (?v_135 (not ?v_73)) (?v_98 (not P17)) (?v_136 (not P12)) (?v_97 (not ?v_118)) (?v_133 (not P1)) (?v_154 (not P14)) (?v_142 (not ?v_93)) (?v_156 (not ?v_48)) (?v_105 (not P26)) (?v_122 (not ?v_111)) (?v_127 (not P10)) (?v_153 (not P2)) (?v_138 (not P27)) (?v_145 (not P15)) (?v_151 (not ?v_37)) (?v_148 (not P0)) (?v_152 (not P21)) (?v_155 (not ?v_120)) (?v_158 (not ?v_104))) (let ((?v_160 (or P7 ?v_26)) (?v_31 (distinct (+ x24 (* 2 x8)) 40)) (?v_51 (< (+ (* 8 x24) (* 27 x4) (* 25 x15)) 37))) (let ((?v_11 (not ?v_51)) (?v_115 (< (- (- x12 (* 2 x12)) (* 6 x22)) 22))) (let ((?v_38 (not ?v_115)) (?v_140 (< (- (- (* 19 x16) (* 24 x12)) x15) 9))) (let ((?v_92 (not ?v_140)) (?v_123 (< (- (+ x15 (* 23 x13)) (* 5 x9)) 28)) (?v_149 (not ?v_31)) (?v_110 (< (+ (- 0 (* 2 x23)) (* 14 x25)) 32))) (let ((?v_124 (not ?v_110)) (?v_144 (not ?v_123)) (?v_141 (or ?v_51 ?v_21)) (?v_6 (<= (+ (- (* 21 x0) (* 22 x14)) (* 25 x24)) (- 30)))) (let ((?v_65 (not ?v_6)) (?v_25 (distinct (- (+ (* 41 x26) x2) (* 31 x11)) (- 44)))) (let ((?v_85 (not ?v_25)) (?v_54 (<= (+ (- (* 12 x29) 0) x24) (- 41)))) (let ((?v_22 (not ?v_54)) (?v_157 (<= (+ (- 0 (* 42 x2)) (* 21 x2)) (- 13))) (?v_1 (distinct (- (+ (* (- 27) x7) (* 6 x6)) 0) 37))) (let ((?v_71 (not ?v_1)) (?v_17 (< (- (+ (* (- 39) x6) (* 9 x22)) (* 28 x16)) (- 23))) (?v_62 (< (- (- (* 26 x16) (* 2 x26)) (* 11 x1)) (- 24))) (?v_69 (< (+ (* (- 16) x3) (* 38 x19) (* 10 x10)) 12))) (let ((?v_9 (not ?v_69)) (?v_14 (= (- (+ (* 25 x22) (* 25 x26)) (* 18 x19)) (- 40))) (?v_90 (< (+ (- (* (- 39) x15) ?v_20) (* 14 x27)) 36))) (let ((?v_50 (not ?v_90)) (?v_66 (not ?v_14)) (?v_35 (< (+ (* (- 21) x1) (* 7 x25) (* 42 x21)) (- 6)))) (let ((?v_126 (not ?v_35)) (?v_32 (<= (- (- (* (- 20) x7) (* 23 x12)) (* 16 x29)) (- 42)))) (let ((?v_57 (not ?v_32)) (?v_39 (<= (+ (- (* 18 x18) ?v_20) (* 6 x17)) (- 26))) (?v_30 (<= (+ (* (- 26) x10) (* 3 x23) (* 32 x23)) (- 26))) (?v_81 (<= (+ (* (- 24) x8) (* 20 x20) (* 23 x8)) 32)) (?v_80 (< (+ (* 8 x16) (* 38 x13) (* 15 x2)) (- 44))) (?v_114 (< (+ (- (* (- 17) x0) (* 24 x4)) (* 28 x7)) (- 30))) (?v_74 (< (- (+ (* (- 8) x11) (* 40 x14)) x19) (- 15))) (?v_95 (not ?v_17))) (let ((?v_108 (not ?v_30)) (?v_88 (not ?v_80)) (?v_146 (not ?v_39)) (?v_147 (not ?v_114)) (?v_139 (not ?v_62)) (?v_137 (not ?v_74)) (?v_159 (not ?v_81))) (and (and (and (and (and (and (and (and (and (and (and (and (and (and (and (and (and (and (and (and (and (and (and (and (and (and (and (and (and (and (and (and (and (and (and (and (and (and (and (and (and (and (and (and (and (and (and (and (and (and (and (and (and (and (and (and (and (and (and (and (and (and (and (and (and (and (and (and (and (and (and (and (and (and (and (and (and (and (and (and (and (and (and (and (and (and (and (and (and (and (and (and (and (and (and (and (and (and (and (and (and (and (and (and (and (and (and (and (and (and (and (and (and (and (and (and (and (and (and (and (and (and (and (and (and (and (and (and (and (and (and (and (and (and (and (and (and (and (and (and (and (and (and (and (and (and (and (and (and (and (and (and (and (and (and (and (and (and (and (and (and (and (and (and (and (and (and (and (and (and (and (and (and (and (and (and (and (and (and (and (and (and (and (and (and (and (and (and (and (and (and (and (and (and (and (and (and (and (and (and (and (and (and (and (and (and (and (and (and (and (and (and (and (and (and (and (and (and (and (and (and (and (and (and (and (and (and (and (and (and (and (and (and (and (and (and (and (and (and (and (and (and (and (and (and (and (and (and (and (and (and (and (and (and (and (and (and (and (and (and (and (and (and (and (and (and (and (and (and (and (and (and (and (and (and (and (and (and (and (and (and (and (and (and (and (and (and (and (and (and (and (and (and (and (and (and (and (and (and (and (and (and (and (and (and (and (and (and (and (and (and (and (and (and (and (and (and (and (and (and (and (and (and (and (and (and (and (and (and (and (and (and (and (and (and (and (and (and (and (and (and (and (and (and (and (and (and (and (and (and (and (and (and (and (and (and (and (and (and (or (or ?v_43 ?v_103) ?v_73) (or (or ?v_86 ?v_31) ?v_65)) (or (or P21 ?v_85) ?v_3)) (or (or P7 ?v_7) ?v_22)) (or (or ?v_157 ?v_0) ?v_4)) (or (or ?v_0 ?v_71) ?v_11)) (or (or ?v_5 ?v_19) ?v_1)) (or (or P27 ?v_38) ?v_26)) (or (or P16 ?v_17) ?v_48)) (or (or ?v_2 ?v_62) ?v_37)) (or (or ?v_10 P25) ?v_9)) (or (or ?v_93 ?v_3) P24)) (or (or ?v_12 P19) P21)) (or (or ?v_58 P23) ?v_5)) (or (or ?v_6 P5) ?v_143)) (or (or ?v_46 ?v_28) ?v_14)) (or (or ?v_60 ?v_9) P17)) (or (or ?v_10 ?v_50) ?v_49)) (or (or ?v_10 ?v_113) ?v_11)) (or (or ?v_12 ?v_72) ?v_66)) (or (or ?v_106 ?v_92) ?v_21)) (or (or ?v_3 ?v_126) ?v_128)) (or (or ?v_75 ?v_89) ?v_4)) (or (or ?v_47 ?v_17) ?v_57)) (or (or ?v_123 ?v_33) ?v_0)) (or (or ?v_24 ?v_27) ?v_39)) (or (or ?v_21 ?v_22) ?v_23)) (or (or P23 ?v_24) P15)) (or (or ?v_23 P29) ?v_36)) (or (or ?v_25 ?v_67) P23)) (or (or ?v_26 ?v_27) ?v_1)) (or (or ?v_131 ?v_61) ?v_30)) (or (or ?v_5 ?v_28) ?v_29)) (or (or ?v_7 ?v_34) P26)) (or (or ?v_30 ?v_117) ?v_31)) (or (or P16 ?v_32) ?v_25)) (or (or ?v_33 ?v_81) ?v_55)) (or (or ?v_35 ?v_7) ?v_42)) (or (or ?v_77 ?v_91) ?v_36)) (or (or ?v_149 ?v_14) ?v_37)) (or (or ?v_38 ?v_99) ?v_39)) (or (or ?v_41 ?v_41) P21)) (or (or P16 P13) ?v_42)) (or (or ?v_80 ?v_87) ?v_43)) (or (or ?v_0 ?v_44) ?v_45)) (or (or ?v_100 ?v_46) ?v_107)) (or (or ?v_102 ?v_47) ?v_70)) (or (or P2 ?v_6) ?v_48)) (or (or P4 ?v_120) P17)) (or (or ?v_49 ?v_50) ?v_34)) (or (or ?v_101 ?v_114) P12)) (or (or ?v_51 ?v_130) ?v_83)) (or (or P13 ?v_121) ?v_29)) (or (or ?v_53 ?v_25) P21)) (or (or ?v_74 ?v_54) ?v_59)) (or (or ?v_55 ?v_79) P21)) (or (or ?v_116 ?v_57) ?v_94)) (or (or ?v_59 ?v_60) ?v_19)) (or (or ?v_24 ?v_129) P22)) (or (or ?v_31 P25) ?v_109)) (or (or ?v_62 ?v_63) ?v_64)) (or (or P15 ?v_65) ?v_95)) (or (or ?v_84 ?v_14) ?v_1)) (or (or P29 P7) ?v_66)) (or (or ?v_67 P9) ?v_112)) (or (or P19 P4) ?v_69)) (or (or P14 ?v_0) ?v_70)) (or (or ?v_108 P19) ?v_71)) (or (or ?v_71 P26) ?v_72)) (or (or ?v_53 ?v_135) ?v_74)) (or (or P24 ?v_50) P8)) (or (or ?v_75 ?v_76) ?v_77)) (or (or ?v_98 ?v_70) ?v_136)) (or (or ?v_78 P8) ?v_44)) (or (or ?v_79 P29) ?v_88)) (or (or ?v_24 ?v_81) ?v_82)) (or (or ?v_83 ?v_55) ?v_43)) (or (or ?v_17 ?v_97) P2)) (or (or ?v_84 ?v_133) ?v_50)) (or (or ?v_85 ?v_23) ?v_37)) (or (or ?v_42 ?v_11) ?v_38)) (or (or ?v_86 ?v_24) ?v_10)) (or (or ?v_48 P8) ?v_87)) (or (or ?v_78 ?v_88) ?v_89)) (or (or ?v_90 ?v_89) ?v_91)) (or (or ?v_154 ?v_92) ?v_110)) (or (or P15 ?v_142) ?v_24)) (or (or ?v_94 ?v_95) ?v_1)) (or (or ?v_28 P27) ?v_60)) (or (or P24 ?v_96) ?v_97)) (or (or P11 ?v_98) ?v_51)) (or (or P0 P29) ?v_35)) (or (or ?v_99 ?v_156) ?v_105)) (or (or ?v_11 ?v_74) ?v_61)) (or (or ?v_122 ?v_51) ?v_49)) (or (or ?v_41 ?v_104) ?v_65)) (or (or ?v_7 ?v_51) ?v_36)) (or (or ?v_100 ?v_146) P18)) (or (or ?v_101 ?v_102) ?v_59)) (or (or ?v_103 ?v_70) P19)) (or (or P19 ?v_62) ?v_32)) (or (or P2 ?v_45) ?v_104)) (or (or P9 ?v_87) ?v_92)) (or (or P20 ?v_105) ?v_64)) (or (or P13 ?v_106) ?v_88)) (or (or ?v_107 ?v_1) ?v_98)) (or (or ?v_108 ?v_64) ?v_17)) (or (or P0 P27) ?v_27)) (or (or ?v_65 ?v_59) ?v_109)) (or (or ?v_26 ?v_83) P21)) (or (or ?v_110 ?v_60) ?v_30)) (or (or ?v_111 ?v_105) ?v_112)) (or (or ?v_38 ?v_113) ?v_53)) (or (or ?v_4 ?v_0) ?v_70)) (or (or ?v_57 ?v_92) ?v_77)) (or (or ?v_90 ?v_23) P29)) (or (or ?v_147 ?v_60) ?v_101)) (or (or ?v_112 ?v_112) ?v_49)) (or (or ?v_113 P9) ?v_65)) (or (or ?v_107 ?v_79) P6)) (or (or ?v_115 ?v_79) ?v_127)) (or (or P29 P24) ?v_17)) (or (or ?v_22 ?v_63) ?v_95)) (or (or ?v_116 ?v_117) ?v_112)) (or (or ?v_118 P4) ?v_119)) (or (or ?v_120 ?v_88) ?v_104)) (or (or ?v_34 ?v_36) ?v_96)) (or (or P27 ?v_78) P21)) (or (or ?v_25 ?v_0) ?v_95)) (or (or ?v_121 ?v_87) ?v_153)) (or (or ?v_107 ?v_43) ?v_83)) (or (or ?v_32 ?v_89) ?v_95)) (or (or ?v_112 ?v_122) ?v_39)) (or (or ?v_124 ?v_91) ?v_144)) (or (or ?v_80 ?v_23) ?v_124)) (or (or ?v_112 P22) ?v_29)) (or (or ?v_117 P28) ?v_91)) (or (or ?v_67 ?v_83) ?v_101)) (or (or ?v_139 ?v_111) ?v_137)) (or (or ?v_125 ?v_126) ?v_138)) (or (or ?v_57 ?v_9) ?v_7)) (or (or ?v_80 ?v_2) ?v_94)) (or (or ?v_75 ?v_96) ?v_93)) (or (or ?v_74 ?v_51) ?v_46)) (or (or ?v_127 P22) ?v_50)) (or (or ?v_128 ?v_114) ?v_116)) (or (or P27 ?v_26) ?v_129)) (or (or ?v_76 ?v_69) ?v_106)) (or (or ?v_130 ?v_31) ?v_131)) (or (or ?v_61 ?v_67) ?v_132)) (or (or ?v_125 ?v_145) ?v_9)) (or (or ?v_27 ?v_35) ?v_97)) (or (or ?v_14 P3) ?v_35)) (or (or ?v_5 ?v_55) ?v_111)) (or (or ?v_127 ?v_105) ?v_118)) (or (or ?v_63 ?v_119) ?v_104)) (or (or ?v_118 ?v_151) ?v_62)) (or (or ?v_48 ?v_88) ?v_31)) (or (or ?v_97 ?v_133) ?v_79)) (or (or ?v_132 ?v_42) ?v_134)) (or ?v_141 P24)) (or (or ?v_30 ?v_3) ?v_132)) (or (or ?v_61 ?v_118) ?v_59)) (or (or ?v_114 ?v_61) ?v_103)) (or (or ?v_98 ?v_110) ?v_132)) (or (or ?v_125 ?v_10) ?v_6)) (or (or ?v_109 P5) ?v_119)) (or (or ?v_135 P14) ?v_1)) (or (or ?v_136 ?v_124) ?v_137)) (or (or ?v_117 ?v_116) ?v_71)) (or (or P24 ?v_138) P18)) (or (or ?v_104 ?v_101) ?v_59)) (or (or ?v_7 ?v_12) ?v_137)) (or (or ?v_139 ?v_108) ?v_19)) (or (or ?v_77 ?v_60) ?v_134)) (or (or ?v_133 ?v_22) ?v_90)) (or (or ?v_117 ?v_90) ?v_91)) (or (or ?v_90 ?v_138) ?v_140)) (or (or ?v_148 P2) ?v_9)) (or (or ?v_89 ?v_139) ?v_55)) (or (or ?v_65 P1) ?v_78)) (or (or P5 P18) ?v_101)) (or (or P8 ?v_137) ?v_77)) (or (or P14 ?v_48) ?v_36)) (or (or ?v_84 ?v_82) P1)) (or ?v_141 ?v_79)) (or (or ?v_118 P27) ?v_42)) (or (or ?v_138 ?v_53) ?v_72)) (or (or ?v_107 ?v_132) P16)) (or (or ?v_88 ?v_69) ?v_142)) (or (or ?v_109 ?v_59) ?v_118)) (or (or ?v_41 ?v_143) ?v_116)) (or (or ?v_12 P25) ?v_134)) (or (or ?v_105 ?v_25) ?v_64)) (or (or ?v_98 ?v_85) ?v_140)) (or (or P5 ?v_135) P14)) (or (or ?v_144 P1) P18)) (or (or ?v_98 ?v_123) ?v_145)) (or (or ?v_47 ?v_9) ?v_39)) (or (or P18 ?v_24) ?v_9)) (or (or ?v_146 ?v_78) ?v_77)) (or (or ?v_99 P23) ?v_102)) (or (or ?v_122 ?v_140) ?v_30)) (or (or ?v_31 ?v_49) ?v_137)) (or (or P6 ?v_19) ?v_90)) (or (or ?v_28 ?v_92) ?v_12)) (or (or ?v_147 ?v_36) ?v_137)) (or (or ?v_55 ?v_58) ?v_4)) (or (or ?v_39 ?v_100) ?v_25)) (or (or P7 ?v_72) P20)) (or (or ?v_55 ?v_82) ?v_32)) (or (or ?v_140 ?v_32) ?v_144)) (or (or ?v_19 P13) ?v_104)) (or (or ?v_147 ?v_130) ?v_107)) (or (or P14 ?v_115) ?v_9)) (or (or ?v_126 ?v_62) ?v_105)) (or (or ?v_133 ?v_33) ?v_61)) (or (or ?v_62 P19) ?v_152)) (or (or ?v_108 P22) ?v_51)) (or (or ?v_118 ?v_32) ?v_73)) (or (or ?v_115 ?v_21) ?v_148)) (or (or ?v_51 P14) P23)) (or (or P10 ?v_80) ?v_155)) (or (or ?v_22 ?v_84) ?v_85)) (or (or ?v_29 ?v_72) ?v_149)) (or (or ?v_94 ?v_89) ?v_9)) (or (or ?v_137 ?v_128) ?v_127)) (or (or P10 ?v_35) ?v_122)) (or (or ?v_118 P12) ?v_105)) (or (or P25 ?v_98) ?v_57)) (or (or ?v_35 ?v_26) ?v_46)) (or (or ?v_150 ?v_118) ?v_64)) (or (or ?v_151 ?v_35) ?v_36)) (or (or ?v_4 ?v_86) ?v_131)) (or (or ?v_146 ?v_73) ?v_90)) (or (or ?v_44 ?v_86) ?v_7)) (or (or ?v_120 ?v_127) ?v_137)) (or (or ?v_112 ?v_64) ?v_110)) (or (or ?v_94 ?v_136) ?v_138)) (or (or ?v_89 ?v_108) P28)) (or (or P16 P23) ?v_117)) (or (or ?v_4 ?v_36) ?v_152)) (or (or ?v_153 ?v_105) ?v_91)) (or (or ?v_54 ?v_125) ?v_89)) (or (or P8 P17) ?v_123)) (or (or ?v_4 P27) ?v_78)) (or (or ?v_42 ?v_107) ?v_90)) (or (or P6 ?v_30) ?v_82)) (or (or ?v_30 P12) ?v_6)) (or (or P22 ?v_129) ?v_14)) (or (or ?v_90 P23) ?v_84)) (or (or P1 ?v_138) ?v_30)) (or (or ?v_144 P9) ?v_12)) (or (or ?v_111 ?v_82) ?v_101)) (or (or ?v_126 P6) ?v_135)) (or (or ?v_151 ?v_101) ?v_138)) (or (or ?v_90 ?v_12) ?v_54)) (or (or ?v_19 ?v_76) P17)) (or (or ?v_121 ?v_43) ?v_88)) (or (or ?v_50 ?v_0) ?v_38)) (or (or ?v_80 P5) P23)) (or (or ?v_108 P18) ?v_25)) (or (or ?v_82 ?v_122) ?v_64)) (or (or ?v_30 ?v_93) P14)) (or (or ?v_26 P23) ?v_59)) (or (or ?v_48 ?v_127) ?v_87)) (or (or ?v_75 P27) ?v_93)) (or (or ?v_104 ?v_80) ?v_119)) (or (or ?v_133 ?v_71) ?v_47)) (or (or P23 P20) ?v_129)) (or (or ?v_102 P1) ?v_54)) (or (or ?v_110 ?v_6) P4)) (or (or ?v_75 P11) P4)) (or (or ?v_4 ?v_146) P10)) (or (or ?v_154 ?v_1) ?v_109)) (or (or ?v_139 ?v_24) ?v_122)) (or (or ?v_53 ?v_19) ?v_71)) (or (or ?v_79 ?v_51) ?v_112)) (or (or ?v_0 ?v_93) ?v_54)) (or (or ?v_22 ?v_86) ?v_93)) (or (or ?v_72 ?v_93) ?v_97)) (or (or ?v_58 ?v_75) ?v_12)) (or (or ?v_73 ?v_140) ?v_29)) (or (or P5 ?v_55) P29)) (or (or ?v_104 ?v_31) ?v_155)) (or (or P1 ?v_75) ?v_81)) (or (or ?v_156 ?v_12) ?v_61)) (or (or P11 ?v_96) ?v_95)) (or (or ?v_123 ?v_61) ?v_96)) (or (or ?v_94 ?v_116) ?v_57)) (or (or P24 ?v_91) ?v_59)) (or (or ?v_66 ?v_41) ?v_62)) (or (or ?v_66 ?v_123) ?v_50)) (or (or ?v_57 ?v_149) P29)) (or (or ?v_61 ?v_91) ?v_138)) (or (or P17 ?v_145) P29)) (or (or ?v_27 ?v_50) ?v_131)) (or (or P22 ?v_99) ?v_26)) (or (or P24 ?v_80) ?v_93)) (or (or ?v_25 ?v_38) ?v_76)) (or (or ?v_143 P23) ?v_41)) (or (or ?v_35 ?v_135) ?v_129)) (or (or ?v_114 P16) P27)) (or (or ?v_151 ?v_129) ?v_149)) (or (or ?v_112 ?v_33) P17)) (or (or ?v_92 ?v_57) P16)) (or (or (not ?v_157) P26) ?v_0)) (or (or P2 P22) ?v_26)) (or (or ?v_100 ?v_50) P18)) (or (or ?v_93 P25) ?v_22)) (or (or ?v_107 ?v_47) ?v_112)) (or (or ?v_130 ?v_103) ?v_36)) (or (or ?v_41 ?v_97) P22)) (or (or ?v_108 ?v_143) ?v_29)) (or (or ?v_106 ?v_39) ?v_121)) (or (or ?v_159 ?v_74) ?v_158)) (or (or ?v_87 ?v_37) P4)) (or (or ?v_147 ?v_38) ?v_130)) (or (or P18 ?v_158) ?v_70)) (or ?v_160 ?v_117)) (or (or ?v_120 ?v_137) ?v_125)) (or (or P2 ?v_62) P23)) (or (or P16 ?v_118) ?v_157)) (or (or ?v_96 ?v_17) ?v_48)) (or (or ?v_100 ?v_6) ?v_123)) (or (or ?v_121 ?v_159) ?v_83)) (or (or ?v_12 ?v_10) ?v_140)) (or (or ?v_109 ?v_23) ?v_34)) (or (or P6 ?v_104) P8)) (or (or ?v_39 ?v_19) ?v_63)) (or (or ?v_139 P3) ?v_118)) (or (or ?v_31 ?v_39) ?v_47)) (or (or ?v_39 ?v_27) P27)) (or (or ?v_65 ?v_144) P10)) (or (or ?v_127 ?v_27) P13)) (or (or ?v_51 ?v_84) ?v_132)) (or (or ?v_86 P14) ?v_137)) (or (or ?v_118 ?v_145) ?v_46)) (or (or ?v_114 ?v_127) ?v_3)) (or (or ?v_75 ?v_30) ?v_98)) (or (or ?v_12 ?v_144) ?v_131)) (or (or ?v_153 ?v_109) ?v_106)) (or (or ?v_150 ?v_89) ?v_114)) (or (or ?v_53 P29) ?v_79)) (or (or ?v_100 ?v_116) ?v_46)) (or (or ?v_77 ?v_136) ?v_89)) (or (or ?v_43 ?v_17) ?v_158)) (or (or ?v_80 ?v_44) ?v_133)) (or (or P28 ?v_17) ?v_75)) (or (or ?v_103 ?v_17) P6)) (or ?v_160 ?v_78)) (or (or ?v_24 P26) ?v_38)) (or (or ?v_26 ?v_102) ?v_82)) (or (or ?v_99 ?v_7) P5)) (or (or ?v_79 ?v_22) ?v_5)) (or (or P29 ?v_120) ?v_110)) (or (or ?v_149 ?v_88) ?v_129)) (or (or ?v_156 ?v_66) ?v_44)) (or (or ?v_136 ?v_126) P5)) (or (or P0 ?v_54) ?v_146)))))))))))))))))))))))))))
(check-sat)
(exit)
